unsat
(define-fun SC ((s (_ BitVec 4)) (t (_ BitVec 4))) Bool true)
0.01user 0.01system 0:00.02elapsed 95%CPU (0avgtext+0avgdata 25416maxresident)k
0inputs+8outputs (0major+970minor)pagefaults 0swaps
